NAME          
ROWS
 N  OBJ
 L  c1
 L  c2
 L  c3
 L  c4
COLUMNS
    MARKER    'MARKER'                 'INTORG'
    x[1]      c1        408
    x[1]      c2        241
    x[1]      c3        104
    x[1]      c4        268
    x[1]      OBJ       -70
    x[2]      c1        701
    x[2]      c2        244
    x[2]      c3        36
    x[2]      c4        83
    x[2]      OBJ       -293
    x[3]      c1        97
    x[3]      c2        367
    x[3]      c3        432
    x[3]      c4        640
    x[3]      OBJ       -698
    x[4]      c1        119
    x[4]      c2        52
    x[4]      c3        885
    x[4]      c4        110
    x[4]      OBJ       -913
    x[5]      c1        595
    x[5]      c2        58
    x[5]      c3        747
    x[5]      c4        162
    x[5]      OBJ       -634
    x[6]      c1        563
    x[6]      c2        541
    x[6]      c3        142
    x[6]      c4        609
    x[6]      OBJ       -921
    x[7]      c1        788
    x[7]      c2        47
    x[7]      c3        678
    x[7]      c4        810
    x[7]      OBJ       -705
    x[8]      c1        20
    x[8]      c2        467
    x[8]      c3        895
    x[8]      c4        957
    x[8]      OBJ       -276
    x[9]      c1        660
    x[9]      c2        215
    x[9]      c3        975
    x[9]      c4        146
    x[9]      OBJ       -244
    x[10]     c1        981
    x[10]     c2        608
    x[10]     c3        51
    x[10]     c4        942
    x[10]     OBJ       -46
RHS
    rhs       c1        2466
    rhs       c2        1420
    rhs       c3        2472
    rhs       c4        2364
RANGES
BOUNDS
 BV bounds    x[1]
 BV bounds    x[2]
 BV bounds    x[3]
 BV bounds    x[4]
 BV bounds    x[5]
 BV bounds    x[6]
 BV bounds    x[7]
 BV bounds    x[8]
 BV bounds    x[9]
 BV bounds    x[10]
ENDATA
